NAME : X-n749-k98
COMMENT : "Generated by Uchoa, Pecin, Pessoa, Poggi, Subramanian, and Vidal (2013)"
TYPE : CVRP
DIMENSION : 749
EDGE_WEIGHT_TYPE : EUC_2D
CAPACITY : 396
NODE_COORD_SECTION
1 643 512
2 707 407
3 394 355
4 140 470
5 364 215
6 493 857
7 117 466
8 462 38
9 551 479
10 545 460
11 423 274
12 440 602
13 525 357
14 574 994
15 387 377
16 583 424
17 16 481
18 615 427
19 511 799
20 110 518
21 223 506
22 163 520
23 834 419
24 442 482
25 42 547
26 478 421
27 372 108
28 320 252
29 731 372
30 341 234
31 787 331
32 433 254
33 555 397
34 640 350
35 565 185
36 320 196
37 64 374
38 283 411
39 46 582
40 328 453
41 779 448
42 602 152
43 466 934
44 280 317
45 403 425
46 482 80
47 504 575
48 649 348
49 388 331
50 518 731
51 550 364
52 745 421
53 384 205
54 236 226
55 602 498
56 670 80
57 380 177
58 135 333
59 594 841
60 189 250
61 682 470
62 515 19
63 311 39
64 398 363
65 217 615
66 530 879
67 410 679
68 382 240
69 146 456
70 543 339
71 316 436
72 397 382
73 507 783
74 436 314
75 88 469
76 127 428
77 158 431
78 639 444
79 722 341
80 121 445
81 470 876
82 452 69
83 82 446
84 353 318
85 220 551
86 534 495
87 502 5
88 411 463
89 338 218
90 282 593
91 457 514
92 321 215
93 363 948
94 524 256
95 642 783
96 722 576
97 265 503
98 113 541
99 638 920
100 523 805
101 722 444
102 364 408
103 310 484
104 519 392
105 240 338
106 662 429
107 603 451
108 336 290
109 759 337
110 64 496
111 490 148
112 297 386
113 167 488
114 402 351
115 424 152
116 472 108
117 580 538
118 157 385
119 695 410
120 104 462
121 404 98
122 114 450
123 456 111
124 756 305
125 446 59
126 711 772
127 86 489
128 557 516
129 440 70
130 44 553
131 618 456
132 404 261
133 460 908
134 542 837
135 379 268
136 633 383
137 331 210
138 706 444
139 570 378
140 218 347
141 47 445
142 514 367
143 175 505
144 198 390
145 586 552
146 386 95
147 855 567
148 734 396
149 301 140
150 93 530
151 791 501
152 417 932
153 389 341
154 479 232
155 527 829
156 378 185
157 447 23
158 665 479
159 306 896
160 527 14
161 517 904
162 441 419
163 325 83
164 766 356
165 213 449
166 337 208
167 62 529
168 523 506
169 470 121
170 510 286
171 620 439
172 79 545
173 426 246
174 335 881
175 772 362
176 486 62
177 156 404
178 418 385
179 393 293
180 511 494
181 650 348
182 830 577
183 271 262
184 411 558
185 691 255
186 646 356
187 696 414
188 728 486
189 445 131
190 123 427
191 832 697
192 452 828
193 373 318
194 502 188
195 202 424
196 424 669
197 37 391
198 527 551
199 467 76
200 47 399
201 519 673
202 177 563
203 694 337
204 123 536
205 451 780
206 432 394
207 379 160
208 343 284
209 661 442
210 513 508
211 545 767
212 109 240
213 512 821
214 398 332
215 178 479
216 604 453
217 446 505
218 662 382
219 98 478
220 619 86
221 516 265
222 138 412
223 440 331
224 111 379
225 313 75
226 391 814
227 378 124
228 345 109
229 140 505
230 369 214
231 411 92
232 471 938
233 295 494
234 406 535
235 674 546
236 507 9
237 337 217
238 557 465
239 694 200
240 143 453
241 488 429
242 68 566
243 594 723
244 397 360
245 671 843
246 801 435
247 142 482
248 323 793
249 6 644
250 515 950
251 119 570
252 367 377
253 147 488
254 414 917
255 339 119
256 108 87
257 96 431
258 666 440
259 605 490
260 575 507
261 532 463
262 691 613
263 115 540
264 202 497
265 48 487
266 452 152
267 518 830
268 45 426
269 5 557
270 473 812
271 655 506
272 571 78
273 98 491
274 468 325
275 452 156
276 65 509
277 493 503
278 128 283
279 439 366
280 542 852
281 722 697
282 327 183
283 689 497
284 643 790
285 87 460
286 518 247
287 595 425
288 329 840
289 345 290
290 69 439
291 358 159
292 121 388
293 719 414
294 577 932
295 644 669
296 487 810
297 456 549
298 419 419
299 220 574
300 396 468
301 527 214
302 458 24
303 527 678
304 91 444
305 634 503
306 355 117
307 660 435
308 149 516
309 121 467
310 365 233
311 564 673
312 643 335
313 948 666
314 594 567
315 368 64
316 448 908
317 470 869
318 305 267
319 354 303
320 469 868
321 582 349
322 727 340
323 735 436
324 460 476
325 715 554
326 461 906
327 179 434
328 498 36
329 456 827
330 304 429
331 367 144
332 212 389
333 479 327
334 188 416
335 604 443
336 558 409
337 489 275
338 371 88
339 513 866
340 77 520
341 388 135
342 322 335
343 277 459
344 412 274
345 629 454
346 187 463
347 403 56
348 537 411
349 693 319
350 603 794
351 371 214
352 506 171
353 98 529
354 476 2
355 404 102
356 415 273
357 646 464
358 578 488
359 404 330
360 80 541
361 512 538
362 13 417
363 109 606
364 482 173
365 654 46
366 14 285
367 483 231
368 501 824
369 95 565
370 526 585
371 664 331
372 56 415
373 560 452
374 398 275
375 388 344
376 350 350
377 148 546
378 419 366
379 37 552
380 510 758
381 154 358
382 588 23
383 317 496
384 335 338
385 610 553
386 101 531
387 597 86
388 123 393
389 682 434
390 779 374
391 118 357
392 478 137
393 458 252
394 496 396
395 235 313
396 725 432
397 492 69
398 443 349
399 429 390
400 443 58
401 596 262
402 340 304
403 361 281
404 358 258
405 289 187
406 313 208
407 497 189
408 297 425
409 443 516
410 543 458
411 797 465
412 513 45
413 416 336
414 564 201
415 435 16
416 357 400
417 537 509
418 364 62
419 709 500
420 539 440
421 179 201
422 492 865
423 429 5
424 126 408
425 667 984
426 265 491
427 541 338
428 399 351
429 100 480
430 327 163
431 678 434
432 173 106
433 438 63
434 327 276
435 98 557
436 346 168
437 135 440
438 386 214
439 345 84
440 79 687
441 516 484
442 773 468
443 244 603
444 45 401
445 87 537
446 261 108
447 390 262
448 451 812
449 384 935
450 448 83
451 515 532
452 489 973
453 657 919
454 338 317
455 114 522
456 334 393
457 293 326
458 648 460
459 420 336
460 393 348
461 334 288
462 672 434
463 177 517
464 350 158
465 643 781
466 514 33
467 662 863
468 254 350
469 402 378
470 332 925
471 710 395
472 388 325
473 256 400
474 207 297
475 532 516
476 800 371
477 64 440
478 574 924
479 398 75
480 509 86
481 455 472
482 478 223
483 31 603
484 120 491
485 141 450
486 468 101
487 268 677
488 85 472
489 387 214
490 426 270
491 381 324
492 178 485
493 457 865
494 562 354
495 567 453
496 640 442
497 413 912
498 403 427
499 523 918
500 348 343
501 389 370
502 453 486
503 573 379
504 191 580
505 666 551
506 423 683
507 319 275
508 612 413
509 459 44
510 683 490
511 786 466
512 428 878
513 596 138
514 473 859
515 592 373
516 381 210
517 127 314
518 716 359
519 384 243
520 93 482
521 760 471
522 194 604
523 377 303
524 768 315
525 727 512
526 421 623
527 109 807
528 409 79
529 55 365
530 508 407
531 399 120
532 729 403
533 197 490
534 492 445
535 338 393
536 146 443
537 241 369
538 641 437
539 716 603
540 646 486
541 598 569
542 132 542
543 384 384
544 617 237
545 609 513
546 449 444
547 808 393
548 626 449
549 773 960
550 670 376
551 777 492
552 146 551
553 449 809
554 828 575
555 360 508
556 94 660
557 473 382
558 470 821
559 434 322
560 763 520
561 170 460
562 354 262
563 44 445
564 301 175
565 717 388
566 123 484
567 843 415
568 69 466
569 796 452
570 332 777
571 413 237
572 351 384
573 721 522
574 821 294
575 185 440
576 396 325
577 272 191
578 419 258
579 391 760
580 515 18
581 637 988
582 876 412
583 327 110
584 90 512
585 630 373
586 680 354
587 224 510
588 564 151
589 528 173
590 474 967
591 414 347
592 135 481
593 455 897
594 453 24
595 332 558
596 516 867
597 562 814
598 418 933
599 148 784
600 511 480
601 551 776
602 725 450
603 641 263
604 469 558
605 101 446
606 43 517
607 517 138
608 123 383
609 567 415
610 399 115
611 99 504
612 209 156
613 724 617
614 570 935
615 664 488
616 479 56
617 432 59
618 755 709
619 649 209
620 351 149
621 387 178
622 80 463
623 360 169
624 541 838
625 640 488
626 298 260
627 287 721
628 382 315
629 659 867
630 322 258
631 205 652
632 616 354
633 218 21
634 529 714
635 828 384
636 630 396
637 374 408
638 558 250
639 331 335
640 477 75
641 43 364
642 404 366
643 590 632
644 526 74
645 353 335
646 571 270
647 83 360
648 459 934
649 196 555
650 202 337
651 200 385
652 123 437
653 682 409
654 409 376
655 476 39
656 461 174
657 531 448
658 467 127
659 566 402
660 549 831
661 379 273
662 133 461
663 469 68
664 302 430
665 66 510
666 517 292
667 557 57
668 380 411
669 89 524
670 544 311
671 429 219
672 539 887
673 498 861
674 451 15
675 445 659
676 400 240
677 298 186
678 437 355
679 250 655
680 534 558
681 456 479
682 506 804
683 148 404
684 308 962
685 296 419
686 368 320
687 466 505
688 388 190
689 577 164
690 417 375
691 535 830
692 784 347
693 435 53
694 393 173
695 520 751
696 611 658
697 644 335
698 683 655
699 111 557
700 453 44
701 215 464
702 416 198
703 491 848
704 261 548
705 334 468
706 558 308
707 180 394
708 535 942
709 656 628
710 446 325
711 647 503
712 624 371
713 271 71
714 364 389
715 468 103
716 217 249
717 550 410
718 339 322
719 532 826
720 96 395
721 543 380
722 30 452
723 60 500
724 357 65
725 358 152
726 577 491
727 718 433
728 232 501
729 346 235
730 358 411
731 663 543
732 459 113
733 49 567
734 436 854
735 136 439
736 765 305
737 529 87
738 130 452
739 490 841
740 592 865
741 283 390
742 357 323
743 323 281
744 533 53
745 746 699
746 358 957
747 400 325
748 150 462
749 395 247
PICKUP_AND_DELIVERY_SECTION
1 0 0 1000000000 0 0 0
2 0 0 1000000000 0 0 86
3 0 0 1000000000 0 0 42
4 0 0 1000000000 0 0 29
5 0 0 1000000000 0 22 0
6 0 0 1000000000 0 0 21
7 0 0 1000000000 0 0 61
8 0 0 1000000000 0 0 22
9 0 0 1000000000 0 12 0
10 0 0 1000000000 0 0 72
11 0 0 1000000000 0 0 71
12 0 0 1000000000 0 0 28
13 0 0 1000000000 0 16 0
14 0 0 1000000000 0 0 14
15 0 0 1000000000 0 0 4
16 0 0 1000000000 0 0 74
17 0 0 1000000000 0 64 0
18 0 0 1000000000 0 0 40
19 0 0 1000000000 0 0 38
20 0 0 1000000000 0 0 64
21 0 0 1000000000 0 46 0
22 0 0 1000000000 0 0 65
23 0 0 1000000000 0 0 82
24 0 0 1000000000 0 0 99
25 0 0 1000000000 0 65 0
26 0 0 1000000000 0 0 53
27 0 0 1000000000 0 0 1
28 0 0 1000000000 0 0 13
29 0 0 1000000000 0 29 0
30 0 0 1000000000 0 0 68
31 0 0 1000000000 0 0 64
32 0 0 1000000000 0 0 37
33 0 0 1000000000 0 52 0
34 0 0 1000000000 0 0 47
35 0 0 1000000000 0 0 7
36 0 0 1000000000 0 0 86
37 0 0 1000000000 0 88 0
38 0 0 1000000000 0 0 9
39 0 0 1000000000 0 0 36
40 0 0 1000000000 0 0 80
41 0 0 1000000000 0 91 0
42 0 0 1000000000 0 0 75
43 0 0 1000000000 0 0 42
44 0 0 1000000000 0 0 75
45 0 0 1000000000 0 94 0
46 0 0 1000000000 0 0 23
47 0 0 1000000000 0 0 48
48 0 0 1000000000 0 0 33
49 0 0 1000000000 0 22 0
50 0 0 1000000000 0 0 63
51 0 0 1000000000 0 0 80
52 0 0 1000000000 0 0 6
53 0 0 1000000000 0 21 0
54 0 0 1000000000 0 0 39
55 0 0 1000000000 0 0 61
56 0 0 1000000000 0 0 55
57 0 0 1000000000 0 15 0
58 0 0 1000000000 0 0 56
59 0 0 1000000000 0 0 35
60 0 0 1000000000 0 0 86
61 0 0 1000000000 0 93 0
62 0 0 1000000000 0 0 32
63 0 0 1000000000 0 0 5
64 0 0 1000000000 0 0 15
65 0 0 1000000000 0 14 0
66 0 0 1000000000 0 0 71
67 0 0 1000000000 0 0 10
68 0 0 1000000000 0 0 57
69 0 0 1000000000 0 39 0
70 0 0 1000000000 0 0 70
71 0 0 1000000000 0 0 19
72 0 0 1000000000 0 0 40
73 0 0 1000000000 0 90 0
74 0 0 1000000000 0 0 42
75 0 0 1000000000 0 0 48
76 0 0 1000000000 0 0 43
77 0 0 1000000000 0 35 0
78 0 0 1000000000 0 0 68
79 0 0 1000000000 0 0 9
80 0 0 1000000000 0 0 63
81 0 0 1000000000 0 92 0
82 0 0 1000000000 0 0 76
83 0 0 1000000000 0 0 79
84 0 0 1000000000 0 0 100
85 0 0 1000000000 0 63 0
86 0 0 1000000000 0 0 37
87 0 0 1000000000 0 0 94
88 0 0 1000000000 0 0 76
89 0 0 1000000000 0 93 0
90 0 0 1000000000 0 0 99
91 0 0 1000000000 0 0 73
92 0 0 1000000000 0 0 68
93 0 0 1000000000 0 53 0
94 0 0 1000000000 0 0 33
95 0 0 1000000000 0 0 59
96 0 0 1000000000 0 0 79
97 0 0 1000000000 0 45 0
98 0 0 1000000000 0 0 10
99 0 0 1000000000 0 0 91
100 0 0 1000000000 0 0 20
101 0 0 1000000000 0 39 0
102 0 0 1000000000 0 0 6
103 0 0 1000000000 0 0 100
104 0 0 1000000000 0 0 29
105 0 0 1000000000 0 26 0
106 0 0 1000000000 0 0 24
107 0 0 1000000000 0 0 29
108 0 0 1000000000 0 0 9
109 0 0 1000000000 0 5 0
110 0 0 1000000000 0 0 52
111 0 0 1000000000 0 0 79
112 0 0 1000000000 0 0 92
113 0 0 1000000000 0 89 0
114 0 0 1000000000 0 0 30
115 0 0 1000000000 0 0 76
116 0 0 1000000000 0 0 25
117 0 0 1000000000 0 38 0
118 0 0 1000000000 0 0 62
119 0 0 1000000000 0 0 71
120 0 0 1000000000 0 0 90
121 0 0 1000000000 0 15 0
122 0 0 1000000000 0 0 35
123 0 0 1000000000 0 0 57
124 0 0 1000000000 0 0 38
125 0 0 1000000000 0 74 0
126 0 0 1000000000 0 0 75
127 0 0 1000000000 0 0 17
128 0 0 1000000000 0 0 55
129 0 0 1000000000 0 62 0
130 0 0 1000000000 0 0 18
131 0 0 1000000000 0 0 89
132 0 0 1000000000 0 0 52
133 0 0 1000000000 0 55 0
134 0 0 1000000000 0 0 20
135 0 0 1000000000 0 0 70
136 0 0 1000000000 0 0 76
137 0 0 1000000000 0 13 0
138 0 0 1000000000 0 0 77
139 0 0 1000000000 0 0 26
140 0 0 1000000000 0 0 52
141 0 0 1000000000 0 69 0
142 0 0 1000000000 0 0 77
143 0 0 1000000000 0 0 48
144 0 0 1000000000 0 0 48
145 0 0 1000000000 0 29 0
146 0 0 1000000000 0 0 80
147 0 0 1000000000 0 0 12
148 0 0 1000000000 0 0 59
149 0 0 1000000000 0 11 0
150 0 0 1000000000 0 0 18
151 0 0 1000000000 0 0 82
152 0 0 1000000000 0 0 27
153 0 0 1000000000 0 97 0
154 0 0 1000000000 0 0 18
155 0 0 1000000000 0 0 28
156 0 0 1000000000 0 0 74
157 0 0 1000000000 0 23 0
158 0 0 1000000000 0 0 60
159 0 0 1000000000 0 0 69
160 0 0 1000000000 0 0 73
161 0 0 1000000000 0 80 0
162 0 0 1000000000 0 0 48
163 0 0 1000000000 0 0 47
164 0 0 1000000000 0 0 32
165 0 0 1000000000 0 51 0
166 0 0 1000000000 0 0 17
167 0 0 1000000000 0 0 20
168 0 0 1000000000 0 0 9
169 0 0 1000000000 0 68 0
170 0 0 1000000000 0 0 52
171 0 0 1000000000 0 0 80
172 0 0 1000000000 0 0 51
173 0 0 1000000000 0 93 0
174 0 0 1000000000 0 0 48
175 0 0 1000000000 0 0 6
176 0 0 1000000000 0 0 60
177 0 0 1000000000 0 29 0
178 0 0 1000000000 0 0 79
179 0 0 1000000000 0 0 27
180 0 0 1000000000 0 0 80
181 0 0 1000000000 0 48 0
182 0 0 1000000000 0 0 6
183 0 0 1000000000 0 0 18
184 0 0 1000000000 0 0 13
185 0 0 1000000000 0 54 0
186 0 0 1000000000 0 0 99
187 0 0 1000000000 0 0 26
188 0 0 1000000000 0 0 54
189 0 0 1000000000 0 64 0
190 0 0 1000000000 0 0 91
191 0 0 1000000000 0 0 7
192 0 0 1000000000 0 0 61
193 0 0 1000000000 0 15 0
194 0 0 1000000000 0 0 54
195 0 0 1000000000 0 0 5
196 0 0 1000000000 0 0 39
197 0 0 1000000000 0 95 0
198 0 0 1000000000 0 0 98
199 0 0 1000000000 0 0 40
200 0 0 1000000000 0 0 55
201 0 0 1000000000 0 6 0
202 0 0 1000000000 0 0 3
203 0 0 1000000000 0 0 32
204 0 0 1000000000 0 0 82
205 0 0 1000000000 0 43 0
206 0 0 1000000000 0 0 66
207 0 0 1000000000 0 0 46
208 0 0 1000000000 0 0 55
209 0 0 1000000000 0 2 0
210 0 0 1000000000 0 0 79
211 0 0 1000000000 0 0 62
212 0 0 1000000000 0 0 67
213 0 0 1000000000 0 14 0
214 0 0 1000000000 0 0 31
215 0 0 1000000000 0 0 70
216 0 0 1000000000 0 0 77
217 0 0 1000000000 0 2 0
218 0 0 1000000000 0 0 33
219 0 0 1000000000 0 0 91
220 0 0 1000000000 0 0 56
221 0 0 1000000000 0 64 0
222 0 0 1000000000 0 0 73
223 0 0 1000000000 0 0 21
224 0 0 1000000000 0 0 46
225 0 0 1000000000 0 81 0
226 0 0 1000000000 0 0 87
227 0 0 1000000000 0 0 3
228 0 0 1000000000 0 0 49
229 0 0 1000000000 0 51 0
230 0 0 1000000000 0 0 68
231 0 0 1000000000 0 0 21
232 0 0 1000000000 0 0 44
233 0 0 1000000000 0 43 0
234 0 0 1000000000 0 0 84
235 0 0 1000000000 0 0 21
236 0 0 1000000000 0 0 25
237 0 0 1000000000 0 84 0
238 0 0 1000000000 0 0 36
239 0 0 1000000000 0 0 56
240 0 0 1000000000 0 0 62
241 0 0 1000000000 0 66 0
242 0 0 1000000000 0 0 34
243 0 0 1000000000 0 0 58
244 0 0 1000000000 0 0 96
245 0 0 1000000000 0 76 0
246 0 0 1000000000 0 0 96
247 0 0 1000000000 0 0 28
248 0 0 1000000000 0 0 48
249 0 0 1000000000 0 56 0
250 0 0 1000000000 0 0 73
251 0 0 1000000000 0 0 64
252 0 0 1000000000 0 0 59
253 0 0 1000000000 0 88 0
254 0 0 1000000000 0 0 7
255 0 0 1000000000 0 0 1
256 0 0 1000000000 0 0 57
257 0 0 1000000000 0 96 0
258 0 0 1000000000 0 0 2
259 0 0 1000000000 0 0 82
260 0 0 1000000000 0 0 42
261 0 0 1000000000 0 85 0
262 0 0 1000000000 0 0 28
263 0 0 1000000000 0 0 54
264 0 0 1000000000 0 0 3
265 0 0 1000000000 0 94 0
266 0 0 1000000000 0 0 46
267 0 0 1000000000 0 0 89
268 0 0 1000000000 0 0 57
269 0 0 1000000000 0 82 0
270 0 0 1000000000 0 0 61
271 0 0 1000000000 0 0 29
272 0 0 1000000000 0 0 9
273 0 0 1000000000 0 35 0
274 0 0 1000000000 0 0 98
275 0 0 1000000000 0 0 55
276 0 0 1000000000 0 0 47
277 0 0 1000000000 0 98 0
278 0 0 1000000000 0 0 3
279 0 0 1000000000 0 0 83
280 0 0 1000000000 0 0 53
281 0 0 1000000000 0 33 0
282 0 0 1000000000 0 0 71
283 0 0 1000000000 0 0 87
284 0 0 1000000000 0 0 40
285 0 0 1000000000 0 1 0
286 0 0 1000000000 0 0 97
287 0 0 1000000000 0 0 38
288 0 0 1000000000 0 0 22
289 0 0 1000000000 0 74 0
290 0 0 1000000000 0 0 52
291 0 0 1000000000 0 0 82
292 0 0 1000000000 0 0 96
293 0 0 1000000000 0 62 0
294 0 0 1000000000 0 0 83
295 0 0 1000000000 0 0 28
296 0 0 1000000000 0 0 61
297 0 0 1000000000 0 75 0
298 0 0 1000000000 0 0 44
299 0 0 1000000000 0 0 76
300 0 0 1000000000 0 0 56
301 0 0 1000000000 0 3 0
302 0 0 1000000000 0 0 43
303 0 0 1000000000 0 0 53
304 0 0 1000000000 0 0 23
305 0 0 1000000000 0 26 0
306 0 0 1000000000 0 0 22
307 0 0 1000000000 0 0 93
308 0 0 1000000000 0 0 97
309 0 0 1000000000 0 47 0
310 0 0 1000000000 0 0 56
311 0 0 1000000000 0 0 26
312 0 0 1000000000 0 0 20
313 0 0 1000000000 0 47 0
314 0 0 1000000000 0 0 82
315 0 0 1000000000 0 0 98
316 0 0 1000000000 0 0 78
317 0 0 1000000000 0 70 0
318 0 0 1000000000 0 0 47
319 0 0 1000000000 0 0 23
320 0 0 1000000000 0 0 68
321 0 0 1000000000 0 31 0
322 0 0 1000000000 0 0 89
323 0 0 1000000000 0 0 44
324 0 0 1000000000 0 0 88
325 0 0 1000000000 0 49 0
326 0 0 1000000000 0 0 35
327 0 0 1000000000 0 0 36
328 0 0 1000000000 0 0 45
329 0 0 1000000000 0 1 0
330 0 0 1000000000 0 0 30
331 0 0 1000000000 0 0 22
332 0 0 1000000000 0 0 1
333 0 0 1000000000 0 11 0
334 0 0 1000000000 0 0 85
335 0 0 1000000000 0 0 21
336 0 0 1000000000 0 0 34
337 0 0 1000000000 0 54 0
338 0 0 1000000000 0 0 60
339 0 0 1000000000 0 0 14
340 0 0 1000000000 0 0 26
341 0 0 1000000000 0 88 0
342 0 0 1000000000 0 0 58
343 0 0 1000000000 0 0 46
344 0 0 1000000000 0 0 78
345 0 0 1000000000 0 14 0
346 0 0 1000000000 0 0 57
347 0 0 1000000000 0 0 40
348 0 0 1000000000 0 0 50
349 0 0 1000000000 0 60 0
350 0 0 1000000000 0 0 59
351 0 0 1000000000 0 0 46
352 0 0 1000000000 0 0 25
353 0 0 1000000000 0 83 0
354 0 0 1000000000 0 0 67
355 0 0 1000000000 0 0 9
356 0 0 1000000000 0 0 96
357 0 0 1000000000 0 10 0
358 0 0 1000000000 0 0 88
359 0 0 1000000000 0 0 67
360 0 0 1000000000 0 0 84
361 0 0 1000000000 0 88 0
362 0 0 1000000000 0 0 57
363 0 0 1000000000 0 0 70
364 0 0 1000000000 0 0 70
365 0 0 1000000000 0 73 0
366 0 0 1000000000 0 0 92
367 0 0 1000000000 0 0 22
368 0 0 1000000000 0 0 69
369 0 0 1000000000 0 34 0
370 0 0 1000000000 0 0 66
371 0 0 1000000000 0 0 59
372 0 0 1000000000 0 0 10
373 0 0 1000000000 0 86 0
374 0 0 1000000000 0 0 12
375 0 0 1000000000 0 0 36
376 0 0 1000000000 0 0 54
377 0 0 1000000000 0 51 0
378 0 0 1000000000 0 0 50
379 0 0 1000000000 0 0 53
380 0 0 1000000000 0 0 35
381 0 0 1000000000 0 36 0
382 0 0 1000000000 0 0 36
383 0 0 1000000000 0 0 98
384 0 0 1000000000 0 0 20
385 0 0 1000000000 0 46 0
386 0 0 1000000000 0 0 38
387 0 0 1000000000 0 0 18
388 0 0 1000000000 0 0 100
389 0 0 1000000000 0 12 0
390 0 0 1000000000 0 0 44
391 0 0 1000000000 0 0 13
392 0 0 1000000000 0 0 5
393 0 0 1000000000 0 53 0
394 0 0 1000000000 0 0 79
395 0 0 1000000000 0 0 58
396 0 0 1000000000 0 0 41
397 0 0 1000000000 0 55 0
398 0 0 1000000000 0 0 65
399 0 0 1000000000 0 0 48
400 0 0 1000000000 0 0 56
401 0 0 1000000000 0 82 0
402 0 0 1000000000 0 0 92
403 0 0 1000000000 0 0 67
404 0 0 1000000000 0 0 27
405 0 0 1000000000 0 8 0
406 0 0 1000000000 0 0 21
407 0 0 1000000000 0 0 85
408 0 0 1000000000 0 0 77
409 0 0 1000000000 0 72 0
410 0 0 1000000000 0 0 15
411 0 0 1000000000 0 0 77
412 0 0 1000000000 0 0 11
413 0 0 1000000000 0 64 0
414 0 0 1000000000 0 0 81
415 0 0 1000000000 0 0 70
416 0 0 1000000000 0 0 81
417 0 0 1000000000 0 34 0
418 0 0 1000000000 0 0 57
419 0 0 1000000000 0 0 10
420 0 0 1000000000 0 0 77
421 0 0 1000000000 0 20 0
422 0 0 1000000000 0 0 7
423 0 0 1000000000 0 0 63
424 0 0 1000000000 0 0 37
425 0 0 1000000000 0 9 0
426 0 0 1000000000 0 0 49
427 0 0 1000000000 0 0 28
428 0 0 1000000000 0 0 92
429 0 0 1000000000 0 22 0
430 0 0 1000000000 0 0 9
431 0 0 1000000000 0 0 88
432 0 0 1000000000 0 0 23
433 0 0 1000000000 0 15 0
434 0 0 1000000000 0 0 91
435 0 0 1000000000 0 0 79
436 0 0 1000000000 0 0 57
437 0 0 1000000000 0 18 0
438 0 0 1000000000 0 0 89
439 0 0 1000000000 0 0 83
440 0 0 1000000000 0 0 75
441 0 0 1000000000 0 93 0
442 0 0 1000000000 0 0 3
443 0 0 1000000000 0 0 53
444 0 0 1000000000 0 0 56
445 0 0 1000000000 0 10 0
446 0 0 1000000000 0 0 98
447 0 0 1000000000 0 0 51
448 0 0 1000000000 0 0 37
449 0 0 1000000000 0 64 0
450 0 0 1000000000 0 0 76
451 0 0 1000000000 0 0 27
452 0 0 1000000000 0 0 4
453 0 0 1000000000 0 99 0
454 0 0 1000000000 0 0 80
455 0 0 1000000000 0 0 8
456 0 0 1000000000 0 0 8
457 0 0 1000000000 0 74 0
458 0 0 1000000000 0 0 20
459 0 0 1000000000 0 0 20
460 0 0 1000000000 0 0 1
461 0 0 1000000000 0 39 0
462 0 0 1000000000 0 0 25
463 0 0 1000000000 0 0 34
464 0 0 1000000000 0 0 99
465 0 0 1000000000 0 46 0
466 0 0 1000000000 0 0 18
467 0 0 1000000000 0 0 36
468 0 0 1000000000 0 0 77
469 0 0 1000000000 0 84 0
470 0 0 1000000000 0 0 18
471 0 0 1000000000 0 0 23
472 0 0 1000000000 0 0 77
473 0 0 1000000000 0 30 0
474 0 0 1000000000 0 0 70
475 0 0 1000000000 0 0 21
476 0 0 1000000000 0 0 48
477 0 0 1000000000 0 40 0
478 0 0 1000000000 0 0 90
479 0 0 1000000000 0 0 34
480 0 0 1000000000 0 0 15
481 0 0 1000000000 0 51 0
482 0 0 1000000000 0 0 48
483 0 0 1000000000 0 0 10
484 0 0 1000000000 0 0 61
485 0 0 1000000000 0 16 0
486 0 0 1000000000 0 0 66
487 0 0 1000000000 0 0 39
488 0 0 1000000000 0 0 47
489 0 0 1000000000 0 62 0
490 0 0 1000000000 0 0 45
491 0 0 1000000000 0 0 75
492 0 0 1000000000 0 0 46
493 0 0 1000000000 0 72 0
494 0 0 1000000000 0 0 18
495 0 0 1000000000 0 0 76
496 0 0 1000000000 0 0 12
497 0 0 1000000000 0 93 0
498 0 0 1000000000 0 0 24
499 0 0 1000000000 0 0 79
500 0 0 1000000000 0 0 66
501 0 0 1000000000 0 69 0
502 0 0 1000000000 0 0 12
503 0 0 1000000000 0 0 94
504 0 0 1000000000 0 0 9
505 0 0 1000000000 0 99 0
506 0 0 1000000000 0 0 66
507 0 0 1000000000 0 0 23
508 0 0 1000000000 0 0 66
509 0 0 1000000000 0 19 0
510 0 0 1000000000 0 0 60
511 0 0 1000000000 0 0 8
512 0 0 1000000000 0 0 44
513 0 0 1000000000 0 11 0
514 0 0 1000000000 0 0 27
515 0 0 1000000000 0 0 98
516 0 0 1000000000 0 0 25
517 0 0 1000000000 0 36 0
518 0 0 1000000000 0 0 68
519 0 0 1000000000 0 0 47
520 0 0 1000000000 0 0 80
521 0 0 1000000000 0 90 0
522 0 0 1000000000 0 0 77
523 0 0 1000000000 0 0 33
524 0 0 1000000000 0 0 5
525 0 0 1000000000 0 88 0
526 0 0 1000000000 0 0 90
527 0 0 1000000000 0 0 4
528 0 0 1000000000 0 0 89
529 0 0 1000000000 0 70 0
530 0 0 1000000000 0 0 63
531 0 0 1000000000 0 0 48
532 0 0 1000000000 0 0 100
533 0 0 1000000000 0 40 0
534 0 0 1000000000 0 0 73
535 0 0 1000000000 0 0 86
536 0 0 1000000000 0 0 1
537 0 0 1000000000 0 14 0
538 0 0 1000000000 0 0 47
539 0 0 1000000000 0 0 99
540 0 0 1000000000 0 0 87
541 0 0 1000000000 0 12 0
542 0 0 1000000000 0 0 10
543 0 0 1000000000 0 0 64
544 0 0 1000000000 0 0 52
545 0 0 1000000000 0 60 0
546 0 0 1000000000 0 0 64
547 0 0 1000000000 0 0 33
548 0 0 1000000000 0 0 75
549 0 0 1000000000 0 25 0
550 0 0 1000000000 0 0 90
551 0 0 1000000000 0 0 22
552 0 0 1000000000 0 0 37
553 0 0 1000000000 0 73 0
554 0 0 1000000000 0 0 70
555 0 0 1000000000 0 0 36
556 0 0 1000000000 0 0 58
557 0 0 1000000000 0 50 0
558 0 0 1000000000 0 0 45
559 0 0 1000000000 0 0 10
560 0 0 1000000000 0 0 60
561 0 0 1000000000 0 94 0
562 0 0 1000000000 0 0 88
563 0 0 1000000000 0 0 83
564 0 0 1000000000 0 0 60
565 0 0 1000000000 0 62 0
566 0 0 1000000000 0 0 5
567 0 0 1000000000 0 0 91
568 0 0 1000000000 0 0 80
569 0 0 1000000000 0 93 0
570 0 0 1000000000 0 0 65
571 0 0 1000000000 0 0 89
572 0 0 1000000000 0 0 90
573 0 0 1000000000 0 86 0
574 0 0 1000000000 0 0 45
575 0 0 1000000000 0 0 93
576 0 0 1000000000 0 0 67
577 0 0 1000000000 0 13 0
578 0 0 1000000000 0 0 15
579 0 0 1000000000 0 0 55
580 0 0 1000000000 0 0 88
581 0 0 1000000000 0 48 0
582 0 0 1000000000 0 0 33
583 0 0 1000000000 0 0 55
584 0 0 1000000000 0 0 46
585 0 0 1000000000 0 26 0
586 0 0 1000000000 0 0 76
587 0 0 1000000000 0 0 24
588 0 0 1000000000 0 0 80
589 0 0 1000000000 0 26 0
590 0 0 1000000000 0 0 85
591 0 0 1000000000 0 0 84
592 0 0 1000000000 0 0 51
593 0 0 1000000000 0 80 0
594 0 0 1000000000 0 0 52
595 0 0 1000000000 0 0 27
596 0 0 1000000000 0 0 21
597 0 0 1000000000 0 2 0
598 0 0 1000000000 0 0 12
599 0 0 1000000000 0 0 100
600 0 0 1000000000 0 0 75
601 0 0 1000000000 0 49 0
602 0 0 1000000000 0 0 72
603 0 0 1000000000 0 0 34
604 0 0 1000000000 0 0 52
605 0 0 1000000000 0 5 0
606 0 0 1000000000 0 0 67
607 0 0 1000000000 0 0 85
608 0 0 1000000000 0 0 16
609 0 0 1000000000 0 85 0
610 0 0 1000000000 0 0 31
611 0 0 1000000000 0 0 4
612 0 0 1000000000 0 0 43
613 0 0 1000000000 0 70 0
614 0 0 1000000000 0 0 3
615 0 0 1000000000 0 0 37
616 0 0 1000000000 0 0 34
617 0 0 1000000000 0 65 0
618 0 0 1000000000 0 0 48
619 0 0 1000000000 0 0 37
620 0 0 1000000000 0 0 52
621 0 0 1000000000 0 81 0
622 0 0 1000000000 0 0 15
623 0 0 1000000000 0 0 17
624 0 0 1000000000 0 0 91
625 0 0 1000000000 0 43 0
626 0 0 1000000000 0 0 9
627 0 0 1000000000 0 0 18
628 0 0 1000000000 0 0 64
629 0 0 1000000000 0 24 0
630 0 0 1000000000 0 0 95
631 0 0 1000000000 0 0 2
632 0 0 1000000000 0 0 13
633 0 0 1000000000 0 100 0
634 0 0 1000000000 0 0 22
635 0 0 1000000000 0 0 75
636 0 0 1000000000 0 0 52
637 0 0 1000000000 0 36 0
638 0 0 1000000000 0 0 79
639 0 0 1000000000 0 0 31
640 0 0 1000000000 0 0 29
641 0 0 1000000000 0 93 0
642 0 0 1000000000 0 0 67
643 0 0 1000000000 0 0 23
644 0 0 1000000000 0 0 18
645 0 0 1000000000 0 58 0
646 0 0 1000000000 0 0 1
647 0 0 1000000000 0 0 57
648 0 0 1000000000 0 0 29
649 0 0 1000000000 0 6 0
650 0 0 1000000000 0 0 40
651 0 0 1000000000 0 0 16
652 0 0 1000000000 0 0 50
653 0 0 1000000000 0 80 0
654 0 0 1000000000 0 0 36
655 0 0 1000000000 0 0 99
656 0 0 1000000000 0 0 9
657 0 0 1000000000 0 99 0
658 0 0 1000000000 0 0 11
659 0 0 1000000000 0 0 98
660 0 0 1000000000 0 0 66
661 0 0 1000000000 0 94 0
662 0 0 1000000000 0 0 58
663 0 0 1000000000 0 0 88
664 0 0 1000000000 0 0 23
665 0 0 1000000000 0 60 0
666 0 0 1000000000 0 0 69
667 0 0 1000000000 0 0 52
668 0 0 1000000000 0 0 68
669 0 0 1000000000 0 45 0
670 0 0 1000000000 0 0 85
671 0 0 1000000000 0 0 21
672 0 0 1000000000 0 0 34
673 0 0 1000000000 0 52 0
674 0 0 1000000000 0 0 74
675 0 0 1000000000 0 0 50
676 0 0 1000000000 0 0 91
677 0 0 1000000000 0 77 0
678 0 0 1000000000 0 0 30
679 0 0 1000000000 0 0 7
680 0 0 1000000000 0 0 61
681 0 0 1000000000 0 64 0
682 0 0 1000000000 0 0 5
683 0 0 1000000000 0 0 1
684 0 0 1000000000 0 0 53
685 0 0 1000000000 0 89 0
686 0 0 1000000000 0 0 52
687 0 0 1000000000 0 0 21
688 0 0 1000000000 0 0 32
689 0 0 1000000000 0 65 0
690 0 0 1000000000 0 0 12
691 0 0 1000000000 0 0 7
692 0 0 1000000000 0 0 4
693 0 0 1000000000 0 78 0
694 0 0 1000000000 0 0 5
695 0 0 1000000000 0 0 50
696 0 0 1000000000 0 0 33
697 0 0 1000000000 0 46 0
698 0 0 1000000000 0 0 65
699 0 0 1000000000 0 0 6
700 0 0 1000000000 0 0 78
701 0 0 1000000000 0 96 0
702 0 0 1000000000 0 0 88
703 0 0 1000000000 0 0 47
704 0 0 1000000000 0 0 58
705 0 0 1000000000 0 77 0
706 0 0 1000000000 0 0 6
707 0 0 1000000000 0 0 26
708 0 0 1000000000 0 0 40
709 0 0 1000000000 0 93 0
710 0 0 1000000000 0 0 95
711 0 0 1000000000 0 0 78
712 0 0 1000000000 0 0 57
713 0 0 1000000000 0 56 0
714 0 0 1000000000 0 0 95
715 0 0 1000000000 0 0 34
716 0 0 1000000000 0 0 40
717 0 0 1000000000 0 73 0
718 0 0 1000000000 0 0 67
719 0 0 1000000000 0 0 73
720 0 0 1000000000 0 0 89
721 0 0 1000000000 0 54 0
722 0 0 1000000000 0 0 64
723 0 0 1000000000 0 0 87
724 0 0 1000000000 0 0 58
725 0 0 1000000000 0 42 0
726 0 0 1000000000 0 0 38
727 0 0 1000000000 0 0 77
728 0 0 1000000000 0 0 72
729 0 0 1000000000 0 72 0
730 0 0 1000000000 0 0 64
731 0 0 1000000000 0 0 78
732 0 0 1000000000 0 0 60
733 0 0 1000000000 0 55 0
734 0 0 1000000000 0 0 90
735 0 0 1000000000 0 0 98
736 0 0 1000000000 0 0 29
737 0 0 1000000000 0 85 0
738 0 0 1000000000 0 0 17
739 0 0 1000000000 0 0 93
740 0 0 1000000000 0 0 43
741 0 0 1000000000 0 71 0
742 0 0 1000000000 0 0 97
743 0 0 1000000000 0 0 59
744 0 0 1000000000 0 0 44
745 0 0 1000000000 0 96 0
746 0 0 1000000000 0 0 65
747 0 0 1000000000 0 0 55
748 0 0 1000000000 0 0 87
749 0 0 1000000000 0 99 0
